<number of tasks>
100

<cycle time>
1000

<order strength>
0.595


<task times>
1 128
2 219
3 113
4 80
5 66
6 31
7 70
8 56
9 94
10 65
11 153
12 308
13 26
14 182
15 195
16 46
17 99
18 70
19 158
20 78
21 65
22 120
23 266
24 105
25 124
26 95
27 30
28 184
29 143
30 50
31 52
32 242
33 113
34 21
35 188
36 225
37 229
38 108
39 78
40 275
41 149
42 66
43 216
44 108
45 143
46 216
47 143
48 188
49 39
50 72
51 65
52 37
53 114
54 101
55 261
56 67
57 271
58 138
59 121
60 70
61 61
62 191
63 188
64 83
65 134
66 170
67 86
68 171
69 43
70 101
71 108
72 180
73 150
74 61
75 180
76 61
77 289
78 173
79 99
80 31
81 116
82 60
83 116
84 313
85 50
86 173
87 105
88 204
89 90
90 131
91 37
92 119
93 184
94 115
95 245
96 320
97 179
98 272
99 28
100 32

<precedence relations>
1,6
2,5
2,7
2,8
3,7
3,8
4,7
4,8
5,10
6,9
7,11
7,12
7,13
8,11
8,12
8,13
9,14
10,16
11,15
11,16
11,17
11,18
12,15
12,16
12,17
12,18
13,15
13,16
13,17
13,18
14,20
15,19
15,20
15,21
16,20
16,21
17,20
17,21
18,20
18,21
19,22
20,24
20,25
21,23
21,24
21,25
22,27
23,26
24,27
24,28
24,30
25,27
25,28
25,29
26,31
27,32
28,32
28,40
29,32
29,33
29,34
30,32
30,33
31,36
32,35
32,37
32,38
32,41
33,38
33,39
33,40
34,75
34,83
34,85
34,86
35,42
36,43
37,45
38,44
38,46
39,46
40,46
40,47
41,54
41,82
41,85
41,100
42,48
43,50
44,49
45,51
46,52
46,53
46,59
46,65
47,51
47,54
48,55
49,59
50,58
51,56
51,60
51,61
52,57
52,72
53,67
54,73
54,83
55,65
56,62
57,63
58,64
59,67
59,72
59,74
59,76
60,66
60,67
60,72
60,74
61,73
61,76
62,69
63,68
64,72
65,71
65,74
65,76
67,70
67,73
67,75
68,77
69,80
70,78
70,83
71,79
72,84
72,85
73,81
73,86
74,82
74,100
75,94
76,82
76,83
76,84
76,86
76,87
77,94
78,89
79,90
80,91
81,93
82,88
82,92
87,99
88,95
89,96
90,99
91,97
92,98
93,99
94,100

<end>
